<number of tasks>
20

<cycle time>
1000

<order strength>
0,179


<task times>
1 555
2 477
3 322
4 542
5 601
6 686
7 357
8 342
9 598
10 641
11 470
12 451
13 674
14 447
15 335
16 541
17 682
18 657
19 550
20 589

<precedence relations>
1,5
2,6
3,7
3,8
3,9
4,10
6,11
7,12
7,13
7,14
12,16
12,17
12,18
14,15
15,20
17,19

<end>
